w = 33;
n = 23;
measures = [|3, 3,
|3, 4,
|3, 5,
|3, 6,
|3, 7,
|3, 8,
|3, 9,
|3, 10,
|3, 13,
|3, 14,
|3, 15,
|3, 17,
|3, 24,
|3, 30,
|3, 33,
|4, 3,
|4, 4,
|4, 6,
|4, 10,
|4, 12,
|4, 14,
|4, 17,
|7, 33,
|];
initial_x = [0, 3, 6, 9, 12, 15, 18, 21, 24, 27, 30, 0, 3, 6, 9, 12, 16, 20, 24, 28, 0, 4, 8];
initial_y = [0, 0, 0, 0, 0, 0, 0, 0, 0, 0, 0, 15, 15, 15, 15, 15, 15, 15, 15, 15, 48, 48, 48];